Data path: /scratch/opt/lxu/CFLG/benchmarks/Kgroup_A
Instance: K100.6.red
Result path: /scratch/opt/lxu/CFLG/results/Kgroup_A
Solver: Gurobi
Time limit: 7200
Formulation: LEFPV2
Cover: Small
julia --project=. src/main.jl /scratch/opt/lxu/CFLG/benchmarks/Kgroup_A K100.6.red /scratch/opt/lxu/CFLG/results/Kgroup_A Gurobi 7200 LEFPV2 Small
The latest version of Julia in the `release` channel is 1.11.5+0.x64.linux.gnu. You currently have `1.11.4+0.x64.linux.gnu` installed. Run:

  juliaup update

in your terminal shell to install Julia 1.11.5+0.x64.linux.gnu and update the `release` channel to that version.
/scratch/opt/lxu/CFLG/benchmarks/Kgroup_A Gurobi 7200.0 /scratch/opt/lxu/CFLG/results/Kgroup_A K100.6.red LEFPV2 Small
/scratch/opt/lxu/CFLG/benchmarks/Kgroup_A/K100.6.red

 read graph
data loaded


after absorb:22 22

max_piece:12
problem_graph/original graph: node: 28/22 edge: 70/64 dlt: 0.08806199650142943 break_avg_len: 0.3220553014909418 break_max_len: 1.0Set parameter TokenServer to value "solice01.zib.de"
Set parameter Threads to value 1
Set parameter OutputFlag to value 1
Gurobi Optimizer version 12.0.1 build v12.0.1rc0 (linux64 - "Debian GNU/Linux 12 (bookworm)")

CPU model: Intel(R) Xeon(R) Gold 5222 CPU @ 3.80GHz, instruction set [SSE2|AVX|AVX2|AVX512]
Thread count: 8 physical cores, 16 logical processors, using up to 1 threads

Non-default parameters:
Threads  1

Optimize a model with 98 rows, 210 columns and 350 nonzeros
Model fingerprint: 0xfeb242bc
Coefficient statistics:
  Matrix range     [1e+00, 1e+00]
  Objective range  [1e+00, 1e+00]
  Bounds range     [1e+00, 1e+00]
  RHS range        [0e+00, 0e+00]
Presolve removed 98 rows and 210 columns
Presolve time: 0.00s
Presolve: All rows and columns removed
Iteration    Objective       Primal Inf.    Dual Inf.      Time
       0   -0.0000000e+00   0.000000e+00   0.000000e+00      0s

Solved in 0 iterations and 0.00 seconds (0.00 work units)
Optimal objective -0.000000000e+00

User-callback calls 36, time in user-callback 0.00 sec
elapsed CPU time: 0.992216 seconds
Set parameter TokenServer to value "solice01.zib.de"
Set parameter Threads to value 1
Set parameter OutputFlag to value 1
Set parameter MIPGap to value 0.0001
Set parameter MIPGapAbs to value 1
Set parameter TimeLimit to value 7199.007784

 more cuts:truefalse
0 0
formulation:LEFPV254 16 6
Set parameter PreCrush to value 1

 model loaded

Gurobi Optimizer version 12.0.1 build v12.0.1rc0 (linux64 - "Debian GNU/Linux 12 (bookworm)")

CPU model: Intel(R) Xeon(R) Gold 5222 CPU @ 3.80GHz, instruction set [SSE2|AVX|AVX2|AVX512]
Thread count: 8 physical cores, 16 logical processors, using up to 1 threads

Non-default parameters:
TimeLimit  7199.007784
MIPGapAbs  1
PreCrush  1
Threads  1

Optimize a model with 1240 rows, 726 columns and 2790 nonzeros
Model fingerprint: 0x6e486975
Variable types: 168 continuous, 558 integer (558 binary)
Coefficient statistics:
  Matrix range     [3e-04, 1e+00]
  Objective range  [1e+00, 1e+00]
  Bounds range     [3e-04, 1e+00]
  RHS range        [3e-04, 1e+00]
Presolve removed 693 rows and 243 columns
Presolve time: 0.01s
Presolved: 547 rows, 483 columns, 2816 nonzeros
Variable types: 152 continuous, 331 integer (331 binary)
Found heuristic solution: objective 128.0000000
Found heuristic solution: objective 124.0000000

Root relaxation: objective 9.600000e+01, 236 iterations, 0.00 seconds (0.00 work units)

    Nodes    |    Current Node    |     Objective Bounds      |     Work
 Expl Unexpl |  Obj  Depth IntInf | Incumbent    BestBd   Gap | It/Node Time

     0     0   96.00000    0   49  124.00000   96.00000  22.6%     -    0s
H    0     0                     122.0000000   96.00000  21.3%     -    0s
H    0     0                     119.0000000   96.00000  19.3%     -    0s
H    0     0                     116.0000000   96.00000  17.2%     -    0s
     0     0   96.13122    0   84  116.00000   96.13122  17.1%     -    0s
H    0     0                     115.0000000   96.20626  16.3%     -    0s
     0     0   96.20626    0   84  115.00000   96.20626  16.3%     -    0s
     0     0   98.58492    0   94  115.00000   98.58492  14.3%     -    0s
H    0     0                     110.0000000   98.65783  10.3%     -    0s
     0     0   98.73110    0   93  110.00000   98.73110  10.2%     -    0s
     0     0   98.73110    0   93  110.00000   98.73110  10.2%     -    0s
     0     0   99.74883    0   93  110.00000   99.74883  9.32%     -    0s
     0     0   99.83175    0   93  110.00000   99.83175  9.24%     -    0s
     0     0   99.88678    0  101  110.00000   99.88678  9.19%     -    0s
     0     0   99.88853    0   98  110.00000   99.88853  9.19%     -    0s
     0     0  101.87573    0   74  110.00000  101.87573  7.39%     -    0s
     0     0  101.98574    0   91  110.00000  101.98574  7.29%     -    0s
     0     0  102.06667    0   82  110.00000  102.06667  7.21%     -    0s
     0     0  102.07407    0   87  110.00000  102.07407  7.21%     -    0s
     0     0  102.07407    0   88  110.00000  102.07407  7.21%     -    0s
     0     0  102.16713    0   93  110.00000  102.16713  7.12%     -    0s
     0     0  102.21568    0   92  110.00000  102.21568  7.08%     -    0s
     0     0  102.24145    0   95  110.00000  102.24145  7.05%     -    0s
     0     0  102.24145    0   96  110.00000  102.24145  7.05%     -    0s
     0     0  102.45592    0   95  110.00000  102.45592  6.86%     -    0s
     0     0  102.45957    0   96  110.00000  102.45957  6.85%     -    0s
     0     0  102.55915    0  105  110.00000  102.55915  6.76%     -    0s
     0     0  102.58025    0  105  110.00000  102.58025  6.75%     -    0s
     0     0  102.58025    0  109  110.00000  102.58025  6.75%     -    0s
     0     0  102.58025    0  109  110.00000  102.58025  6.75%     -    0s
     0     0  102.59797    0  111  110.00000  102.59797  6.73%     -    0s
     0     0  102.60019    0  112  110.00000  102.60019  6.73%     -    0s
     0     0  102.60230    0  104  110.00000  102.60230  6.73%     -    0s
     0     0  102.62668    0   85  110.00000  102.62668  6.70%     -    0s
     0     2  102.64150    0   84  110.00000  102.64150  6.69%     -    0s
H  752   523                     109.0000000  104.00486  4.58%  34.5    2s
H 1055   558                     108.0000000  104.06698  3.64%  34.0    3s
  2248   895  106.03409   28   42  108.00000  104.50000  3.24%  39.2    5s
  5630  2405  105.13114   23   94  108.00000  104.95366  2.82%  39.9   10s
  9100  3771 infeasible   31       108.00000  105.09794  2.69%  39.7   15s
 10214  4226  105.42670   26  132  108.00000  105.13750  2.65%  39.4   20s
 10310  4290  105.74491   25  142  108.00000  105.13750  2.65%  39.1   25s
 10448  4373  105.13750   34   94  108.00000  105.13750  2.65%  41.8   30s
 12194  4738  105.26413   36   88  108.00000  105.15953  2.63%  42.5   35s
 15237  5043  106.05835   37   75  108.00000  105.43367  2.38%  43.1   40s
 18505  5116  105.63022   40   71  108.00000  105.58678  2.23%  43.3   45s
 21835  5108  106.54298   38   80  108.00000  105.74503  2.09%  43.5   50s
 25281  5516  106.52663   39  104  108.00000  105.83986  2.00%  43.7   55s
 28720  6270  106.20267   41   62  108.00000  105.96210  1.89%  43.8   60s
 32033  7027  106.11225   40   54  108.00000  106.00000  1.85%  44.0   65s
 35002  7776  106.26296   39   87  108.00000  106.00000  1.85%  44.4   70s
 38034  8597  106.39457   45   86  108.00000  106.00000  1.85%  44.7   75s
 41231  9332  106.50000   39   44  108.00000  106.02331  1.83%  44.7   80s
 44495  9856  106.31489   41   59  108.00000  106.05655  1.80%  44.5   85s
 47765 10370  107.00000   46   32  108.00000  106.09235  1.77%  44.5   90s
 50923 10800  107.00000   46   39  108.00000  106.12289  1.74%  44.5   95s
 54075 11159  106.72023   47   79  108.00000  106.15219  1.71%  44.5  100s
 57191 11470     cutoff   43       108.00000  106.17693  1.69%  44.4  105s
 60168 11723     cutoff   49       108.00000  106.20662  1.66%  44.4  110s
 63182 11803     cutoff   44       108.00000  106.23698  1.63%  44.5  115s
 66198 11915  106.52935   41   66  108.00000  106.26461  1.61%  44.5  120s
 69002 11958  106.49350   40   96  108.00000  106.29703  1.58%  44.6  125s
 72032 12028  107.00000   48   31  108.00000  106.32857  1.55%  44.6  130s
 74948 12145     cutoff   42       108.00000  106.34365  1.53%  44.7  135s
 77881 12086  106.67549   48   46  108.00000  106.37552  1.50%  44.7  140s
 80819 11870  106.56123   43   60  108.00000  106.40869  1.47%  44.8  145s
 83913 11637     cutoff   45       108.00000  106.43407  1.45%  44.8  150s
 87015 11341  106.98071   48   56  108.00000  106.46205  1.42%  44.7  155s
 89859 10881  107.00000   44   15  108.00000  106.50000  1.39%  44.8  160s
 92811 10684     cutoff   42       108.00000  106.50000  1.39%  44.9  165s
 95691 10665  107.00000   39   55  108.00000  106.51122  1.38%  44.9  170s
 98589 10053     cutoff   37       108.00000  106.55613  1.34%  44.9  175s
 101566  9426     cutoff   49       108.00000  106.60000  1.30%  44.9  180s
 104539  8681  106.67782   51   51  108.00000  106.65509  1.25%  44.8  185s
 107675  7857  107.00000   41   52  108.00000  106.70727  1.20%  44.7  190s
 111050  6647  106.88082   46   76  108.00000  106.80723  1.10%  44.5  195s
 114204  5403     cutoff   48       108.00000  106.94854  0.97%  44.4  200s

Cutting planes:
  Gomory: 22
  Cover: 295
  Implied bound: 50
  Clique: 2
  MIR: 237
  Mixing: 22
  StrongCG: 9
  Flow cover: 768
  GUB cover: 31
  Inf proof: 10
  Zero half: 47
  RLT: 33
  Relax-and-lift: 24
  BQP: 9

Explored 115887 nodes (5142706 simplex iterations) in 202.77 seconds (177.45 work units)
Thread count was 1 (of 16 available processors)

Solution count 10: 108 108 109 ... 128

Optimal solution found (tolerance 1.00e-04)
Best objective 1.080000000000e+02, best bound 1.070000000000e+02, gap 0.9259%

User-callback calls 308229, time in user-callback 0.85 sec

 sepatime0
108.0Stat(MathOptInterface.OPTIMAL, 108.0, 107.00000000000001, 0.009259259259259127, 0.0, 0.992216, 202.76679396629333, 115887, Main.CFLG.LEFPV2, "", #undef)
